SCIP Status        : problem creation / modification
Total Time         :       0.03
  reading          :       0.03
Original Problem   :
  Problem name     : main4.zpl
  Variables        : 2430 (2430 binary, 0 integer, 0 implicit integer, 0 continuous)
  Constraints      : 0 initial, 2510 maximal
  Objective        : minimize, 2430 non-zeros (abs.min = 0.0017, abs.max = 5700)
